p cnf 180 301
4  -1  2  0
-13  -10  11  0
19  16  -17  0
-22  19  -20  0
-25  22  23  0
31  28  29  0
-37  -34  35  0
-49  46  47  0
52  -49  -50  0
-58  55  56  0
-64  61  62  0
67  -64  -65  0
73  70  71  0
76  -73  -74  0
88  -85  -86  0
91  88  89  0
-94  91  -92  0
100  97  98  0
106  103  -104  0
-109  106  -107  0
-112  -109  -110  0
121  118  -119  0
130  127  -128  0
136  -133  -134  0
-139  136  -137  0
142  139  -140  0
145  -142  -143  0
148  145  146  0
-151  -148  -149  0
-154  151  -152  0
157  -154  155  0
160  157  -158  0
-163  160  -161  0
-169  -166  -167  0
172  169  170  0
178  -175  -176  0
-5  4  -2  0
-5  4  -1  0
-5  -1  2  0
8  7  5  0
8  5  6  0
11  -10  8  0
11  10  -7  0
11  7  8  0
11  8  -9  0
-14  13  10  0
-17  -16  -14  0
-17  16  13  0
-20  19  17  0
-20  -19  -16  0
20  17  18  0
23  22  -19  0
-23  -20  21  0
26  -25  23  0
-26  25  22  0
-26  -22  23  0
26  23  24  0
-29  28  -26  0
29  25  26  0
32  -31  -29  0
-32  -31  28  0
32  28  29  0
-35  34  31  0
-35  -32  -33  0
-38  37  35  0
-38  -34  -35  0
-38  -35  -36  0
41  40  38  0
-41  37  -38  0
41  38  39  0
-44  43  -41  0
44  40  -41  0
-44  41  42  0
47  46  -44  0
-50  49  47  0
50  -49  46  0
-50  46  47  0
53  49  50  0
56  55  -53  0
59  -58  56  0
-59  58  55  0
62  61  -59  0
-62  61  -58  0
62  -59  60  0
-65  64  -62  0
-65  64  -61  0
65  61  -62  0
-68  -67  -65  0
-68  -64  65  0
-68  -65  -66  0
-71  -70  68  0
71  70  -67  0
-74  73  -71  0
-74  -70  71  0
-74  71  -72  0
77  76  -74  0
-77  -76  73  0
-77  -74  -75  0
80  -79  76  0
-80  77  78  0
-83  82  80  0
-83  -82  79  0
-83  79  80  0
83  -80  -81  0
86  82  83  0
86  -83  -84  0
-89  88  86  0
89  -85  86  0
89  86  -87  0
-92  91  89  0
-92  88  89  0
92  -89  -90  0
95  -91  92  0
95  92  93  0
-98  -97  94  0
98  -94  -95  0
101  -100  98  0
-101  100  -97  0
-101  -97  98  0
-104  103  100  0
-107  -106  103  0
107  -103  104  0
110  109  -107  0
-110  -109  106  0
-110  107  108  0
113  -112  -109  0
-113  109  110  0
113  -110  -111  0
116  -115  113  0
-116  -115  -112  0
-116  -112  -113  0
116  -113  -114  0
119  118  116  0
-119  118  -115  0
119  -116  117  0
-122  -121  119  0
122  121  118  0
122  -118  -119  0
125  124  -122  0
125  124  -121  0
125  -121  -122  0
-125  -122  -123  0
-128  127  -125  0
128  -127  -124  0
128  124  125  0
-128  125  -126  0
131  -130  128  0
131  130  -127  0
-131  127  128  0
131  128  -129  0
134  -133  131  0
-134  133  130  0
134  130  131  0
-137  136  -133  0
137  -133  -134  0
-137  134  -135  0
-140  -139  137  0
140  -139  136  0
-143  142  139  0
-143  139  140  0
-143  140  -141  0
-146  -145  143  0
-146  -145  142  0
146  143  144  0
149  -148  146  0
-149  -148  -145  0
-149  146  147  0
-152  -148  149  0
155  154  -151  0
-155  151  -152  0
-155  -152  153  0
158  -157  -154  0
158  -155  156  0
-161  -158  159  0
-164  163  160  0
-167  -166  164  0
167  -166  -163  0
167  164  165  0
-170  -169  167  0
170  169  -166  0
-170  -167  168  0
173  172  170  0
173  -172  -169  0
173  169  -170  0
-173  -170  -171  0
-176  -175  -172  0
-176  172  -173  0
176  173  174  0
-179  -178  176  0
179  -175  176  0
-6  5  -3  0
-6  -5  2  0
-9  -8  6  0
9  8  -5  0
12  11  9  0
12  11  8  0
15  14  12  0
15  -11  12  0
18  -17  -15  0
-18  17  -14  0
18  14  -15  0
21  20  -18  0
21  -20  -17  0
-24  -23  -21  0
24  -23  -20  0
-24  20  -21  0
-27  26  23  0
-27  23  24  0
-30  -29  -27  0
33  -32  -30  0
-33  32  -29  0
-33  -29  -30  0
36  -35  -32  0
-36  -32  -33  0
39  38  -35  0
-39  -35  -36  0
42  -41  -39  0
-45  44  -41  0
45  -41  42  0
-51  -50  -48  0
51  47  48  0
-54  53  -51  0
54  53  -50  0
-57  56  -54  0
60  59  -57  0
-60  -56  57  0
63  -62  -59  0
66  -65  -63  0
66  -65  62  0
66  -62  -63  0
69  -68  66  0
69  68  -65  0
-69  65  66  0
72  71  69  0
72  71  -68  0
-72  -68  -69  0
75  -74  -72  0
-75  74  -71  0
-75  -71  -72  0
-78  77  75  0
-78  77  -74  0
81  80  -78  0
81  -80  77  0
81  77  78  0
-84  -83  -80  0
-84  -80  81  0
87  -86  83  0
-90  89  -87  0
90  89  86  0
93  -92  90  0
-96  95  -93  0
-96  92  -93  0
99  98  -95  0
99  95  96  0
102  -101  -99  0
102  -101  98  0
102  98  99  0
-105  -104  -102  0
105  -101  -102  0
108  -107  -105  0
-108  -107  104  0
111  110  107  0
111  107  -108  0
-114  -113  -111  0
-114  110  111  0
-117  116  113  0
117  -113  114  0
120  116  -117  0
-123  -119  -120  0
-132  131  -128  0
-135  131  -132  0
138  -137  -135  0
-138  -137  134  0
-138  134  135  0
-141  -140  -138  0
-141  140  -137  0
-141  -137  -138  0
144  143  -141  0
144  143  -140  0
-144  -140  141  0
-147  146  144  0
-147  -143  -144  0
150  -149  147  0
-150  -149  146  0
-156  155  153  0
-156  155  152  0
156  -152  -153  0
159  -158  -156  0
159  158  155  0
162  -161  -159  0
162  161  -158  0
-162  158  159  0
165  -164  -161  0
168  -167  -165  0
-168  167  -164  0
-171  170  168  0
171  -167  -168  0
174  -173  -171  0
177  173  -174  0
-180  -179  -177  0
180  -176  -177  0
